board = [||0,0|,  |9,0|,  |34,0|, |4,0|,  |0,0|
         ||0,9|,  |-1,0|, |-1,0|, |-1,0|, |0,0|
         ||0,13|, |-1,0|, |-1,0|, |-1,0|, |0,0|
         ||0,13|, |-1,0|, |-1,0|, |11,0|, |3,0|
         ||0,0|,  |0,7|,  |-1,0|, |-1,0|, |-1,0|
         ||0,0|,  |0,19|, |-1,0|, |-1,0|, |-1,0||];